100 100
3 11
25 50
2 48
12 15
7 17
35 28
4 12
34 48
42 25
47 44
28 37
34 7
16 8
15 6
50 11
39 45
37 17
24 23
28 35
47 11
24 37
47 50
31 20
5 24
3 29
17 2
48 22
7 7
12 28
10 5
46 40
38 3
48 35
29 44
22 49
23 19
29 20
17 40
26 15
14 1
8 37
24 20
38 34
15 26
1 17
45 14
10 8
13 20
49 14
24 43
5 21
8 31
13 11
43 26
11 49
20 39
29 37
33 40
11 43
13 39
35 7
48 14
7 36
42 17
32 44
18 13
24 19
48 35
19 30
41 12
24 26
50 22
33 45
39 9
43 23
38 38
8 5
47 14
16 40
23 31
11 19
44 24
13 3
41 41
4 49
49 46
18 3
9 1
27 26
20 12
47 18
26 9
46 1
35 6
18 19
12 34
11 32
15 18
20 35
17 36
